sol/ETP_Problem01.sol
check_feasible()=True
penality()=182.6088379705399
timeslot_of_exam=[11, 11, 8, 13, 5, 6, 6, 6, 3, 5, 3, 5, 5, 5, 5, 5, 13, 12, 12, 12, 12, 12, 12, 11, 11, 11, 10, 13, 3, 6, 6, 6, 6, 6, 6, 6, 6, 12, 11, 11, 11, 11, 9, 11, 9, 8, 8, 2, 3, 2, 2, 2, 2, 2, 2, 2, 2, 11, 9, 9, 9, 10, 8, 9, 8, 9, 9, 4, 4, 4, 11, 7, 9, 9, 9, 10, 5, 1, 5, 1, 1, 1, 1, 1, 10, 8, 8, 8, 9, 6, 8, 6, 6, 6, 13, 13, 12, 5, 5, 13, 5, 5, 8, 8, 13, 13, 4, 4, 1, 1, 1, 1, 3, 1, 3, 3, 3, 3, 3, 9, 6, 6, 6, 8, 11, 6, 12, 12, 12, 10, 11, 2, 3, 7, 9, 2, 12, 10, 1]
exams_at_timeslot=[[78, 80, 81, 82, 83, 84, 109, 110, 111, 112, 114, 139], [48, 50, 51, 52, 53, 54, 55, 56, 57, 132, 136], [9, 11, 29, 49, 113, 115, 116, 117, 118, 119, 133], [68, 69, 70, 107, 108], [5, 10, 12, 13, 14, 15, 16, 77, 79, 98, 99, 101, 102], [6, 7, 8, 30, 31, 32, 33, 34, 35, 36, 37, 90, 92, 93, 94, 121, 122, 123, 126], [72, 134], [3, 46, 47, 63, 65, 86, 87, 88, 91, 103, 104, 124], [43, 45, 59, 60, 61, 64, 66, 67, 73, 74, 75, 89, 120, 135], [27, 62, 76, 85, 130, 138], [1, 2, 24, 25, 26, 39, 40, 41, 42, 44, 58, 71, 125, 131], [18, 19, 20, 21, 22, 23, 38, 97, 127, 128, 129, 137], [4, 17, 28, 95, 96, 100, 105, 106]]