log/ETP_Problem01.log

Gurobi 10.0.1 (win64, Python) logging started Mon Jul 10 11:40:22 2023

Set parameter Username
Set parameter LogFile to value "C:/Users/asus/Desktop/ETP_problem/log/ETP_Problem01.log"
Academic license - for non-commercial use only - expires 2024-03-21
Set parameter Threads to value 1
Set parameter Presolve to value 1
Set parameter Method to value 0
Set parameter TimeLimit to value 600
Set parameter PreSparsify to value 1
Gurobi Optimizer version 10.0.1 build v10.0.1rc0 (win64)

CPU model: Intel(R) Core(TM) i5-8265U CPU @ 1.60GHz, instruction set [SSE2|AVX|AVX2]
Thread count: 4 physical cores, 8 logical processors, using up to 1 threads

Optimize a model with 156192 rows, 21128 columns and 452013 nonzeros
Model fingerprint: 0x54a2ef2e
Variable types: 19321 continuous, 1807 integer (1807 binary)
Coefficient statistics:
  Matrix range     [1e+00, 2e+01]
  Objective range  [1e+00, 1e+00]
  Bounds range     [1e+00, 1e+00]
  RHS range        [1e+00, 2e+01]
Presolve removed 38104 rows and 18345 columns (presolve time = 23s) ...
Sparsify removed 1347 nonzeros (0%)
Presolve removed 38104 rows and 18262 columns
Presolve time: 23.32s
Presolved: 118088 rows, 2866 columns, 478769 nonzeros
Variable types: 0 continuous, 2866 integer (1695 binary)
Found heuristic solution: objective 7270.0000000
Found heuristic solution: objective 6723.0000000
Root relaxation presolved: 2866 rows, 120954 columns, 481635 nonzeros


Root simplex log...

Iteration    Objective       Primal Inf.    Dual Inf.      Time
       0      handle free variables                         25s
    1950    1.3283006e+32   5.854886e+33   1.328301e+02     25s
    5382   -3.9660449e+03   1.640242e+02   1.684674e+11     30s
    7440   -3.5891550e+03   0.000000e+00   6.590676e+06     35s
Warning: Markowitz tolerance tightened to 0.0625
   11472   -1.4202090e+03   0.000000e+00   4.744386e+06     40s
   15762   -9.3469567e+02   0.000000e+00   1.614231e+06     45s
   21262   -6.5737424e+02   0.000000e+00   3.416092e+05     50s
   26452   -5.2025275e+02   0.000000e+00   1.766026e+05     55s
   32877   -3.5943208e+02   0.000000e+00   2.635927e+06     60s
   38603   -2.6095336e+02   0.000000e+00   8.129056e+05     65s
   46066   -1.8165248e+02   0.000000e+00   8.405854e+05     70s
   51402   -1.4280210e+02   0.000000e+00   1.967656e+05     75s
   57820   -9.2631337e+01   0.000000e+00   8.506901e+05     80s
   65022   -4.2575301e+01   0.000000e+00   3.530181e+06     85s
   72031   -9.5208167e+00   0.000000e+00   6.991387e+05     90s
   77663    1.8673958e-02   0.000000e+00   7.264576e+03     95s
   79557   -0.0000000e+00   0.000000e+00   0.000000e+00     96s
   79557   -0.0000000e+00   0.000000e+00   0.000000e+00     96s
   79557    0.0000000e+00   0.000000e+00   0.000000e+00     96s

Root relaxation: objective 0.000000e+00, 79557 iterations, 72.15 seconds (59.85 work units)
Total elapsed time = 103.95s

    Nodes    |    Current Node    |     Objective Bounds      |     Work
 Expl Unexpl |  Obj  Depth IntInf | Incumbent    BestBd   Gap | It/Node Time

     0     0    0.00000    0  498 6723.00000    0.00000   100%     -  105s
     0     0    0.00000    0  497 6723.00000    0.00000   100%     -  108s
     0     0    0.00000    0  451 6723.00000    0.00000   100%     -  110s
     0     0    0.00000    0  481 6723.00000    0.00000   100%     -  112s
     0     0    0.00000    0  391 6723.00000    0.00000   100%     -  179s
     0     0    0.00000    0  381 6723.00000    0.00000   100%     -  182s
H    0     0                    6647.0000000    0.00000   100%     -  183s
     0     0    0.00000    0  339 6647.00000    0.00000   100%     -  184s
     0     0    0.00000    0  361 6647.00000    0.00000   100%     -  193s
     0     0    0.00000    0  344 6647.00000    0.00000   100%     -  195s
     0     0    0.00000    0  359 6647.00000    0.00000   100%     -  205s
     0     0    0.00000    0  315 6647.00000    0.00000   100%     -  206s
     0     0    0.00000    0  352 6647.00000    0.00000   100%     -  219s
H    0     0                    6591.0000000    0.00000   100%     -  220s
     0     0    0.00000    0  340 6591.00000    0.00000   100%     -  220s
     0     0    0.00000    0  358 6591.00000    0.00000   100%     -  231s
     0     0    0.00000    0  325 6591.00000    0.00000   100%     -  232s
     0     0    0.00000    0  355 6591.00000    0.00000   100%     -  245s
     0     0    0.00000    0  355 6591.00000    0.00000   100%     -  255s
H    0     0                    6538.0000000    0.00000   100%     -  263s
H    0     0                    6373.0000000    0.00000   100%     -  263s
H    0     0                    6159.0000000    0.00000   100%     -  265s
H    0     0                    5400.0000000    0.00000   100%     -  285s
     4     3    0.00000    2   43 5400.00000    0.00000   100% 23841  297s
    56    55   16.72050   35  115 5400.00000    0.00000   100%  1873  300s
   504   449    8.50000    2  138 5400.00000    0.00000   100%   293  338s
   507   452    0.00000    4  125 5400.00000    0.00000   100%   294  340s
   514   459    0.00000   10  153 5400.00000    0.00000   100%   298  345s
   519   464   14.15705   15  233 5400.00000    0.00000   100%   300  350s
   525   470   14.06336   18  231 5400.00000    0.00000   100%   312  356s
   530   475   17.87990   21  225 5400.00000    0.00000   100%   323  361s
   533   478   16.63087   23  269 5400.00000    0.00000   100%   333  365s
   539   484   19.60218   26  247 5400.00000    0.00000   100%   343  371s
   542   487   20.97232   28  239 5400.00000    0.00000   100%   350  375s
   548   493   14.38439   31  240 5400.00000    0.00000   100%   361  380s
   555   498  122.05484   35  280 5400.00000    0.00000   100%   365  385s
   562   505  233.01736   39  307 5400.00000    0.00000   100%   364  390s
   572   515  180.12846   45  308 5400.00000    0.00000   100%   362  395s
   586   529  258.80046   53  292 5400.00000    0.00000   100%   360  400s
   603   546  351.21387   61  296 5400.00000    0.00000   100%   360  405s
   619   562  614.07289   69  301 5400.00000    0.00000   100%   359  410s
   691   618    9.77778    3  147 5400.00000    0.00000   100%   329  418s
   693   620   69.08453    5  270 5400.00000    0.00000   100%   333  420s
   704   631   91.58254   15  278 5400.00000    0.00000   100%   331  425s
   732   657  167.03146   37  246 5400.00000    0.00000   100%   326  430s
   749   674  304.44457   47  251 5400.00000    0.00000   100%   329  435s
   784   709  426.12424   70  240 5400.00000    0.00000   100%   322  440s
   961   846   13.38219   14  277 5400.00000    0.00000   100%   271  445s
   978   842   38.95635   29  286 5400.00000    0.00000   100%   271  450s
  1000   864   40.74737   46  263 5400.00000    0.00000   100%   273  455s
H 1003   866                    5133.0000000    0.00000   100%   207  455s
  1004   869    0.00000    2  155 5133.00000    0.00000   100%   305  509s
  1005   870   86.07312    2  496 5133.00000    0.00000   100%   309  512s
  1006   871   24.57507    3  494 5133.00000    0.00000   100%   312  515s
  1011   876   21.09883    6  339 5133.00000    0.00000   100%   315  520s
  1014   879    0.00000    8  200 5133.00000    0.00000   100%   319  525s
  1018   883   72.22409   10  201 5133.00000    0.00000   100%   326  532s
  1020   885    0.00000   11  172 5133.00000    0.00000   100%   327  535s
  1022   887   24.26782   12  366 5133.00000    0.00000   100%   335  540s
  1028   893    2.00000   16  162 5133.00000    0.00000   100%   337  545s
  1036   901   22.67239   21  165 5133.00000    0.00000   100%   343  550s
  1041   906  169.70379   23  552 5133.00000    0.00000   100%   352  556s
  1046   911  191.52871   26  395 5133.00000    0.00000   100%   356  560s
  1057   922  607.33921   31  406 5133.00000    0.00000   100%   362  565s
  1068   933  914.18941   37  547 5133.00000    0.00000   100%   367  570s
  1093   957 1357.06667   51  411 5133.00000    0.00000   100%   364  575s
  1269  1129 2078.46667  173   91 5133.00000    0.00000   100%   316  580s
  1294  1144   90.05362   11  340 5133.00000    0.00000   100%   314  585s
  1304  1154  181.87988   20  453 5133.00000    0.00000   100%   316  590s
  1312  1162  408.85162   27  522 5133.00000    0.00000   100%   319  595s
  1322  1172  230.71675   34  394 5133.00000    0.00000   100%   319  600s

Cutting planes:
  Clique: 10
  MIR: 118
  StrongCG: 1
  Zero half: 13
  Relax-and-lift: 2

Explored 1323 nodes (586100 simplex iterations) in 600.03 seconds (1059.32 work units)
Thread count was 1 (of 8 available processors)

Solution count 9: 5133 5400 6159 ... 7270

Time limit reached
Best objective 5.133000000000e+03, best bound 0.000000000000e+00, gap 100.0000%
